# LAMMPS input for LJMD exercise.
units real
atom_style atomic
neighbor 3.0 bin
boundary p p p
neigh_modify delay 4 check yes every 1
read_data data.lj_78732

pair_style lj/cut 12.0
pair_coeff 1 1 0.2379 3.405

timestep 5.0
thermo 10
thermo_style custom step temp ke pe etotal
fix  1 all nve
dump 1 all xyz 10 lj_78732.xyz

run 100
write_restart lj_78732.restart
